p cnf 25 63
a 19 12 0
e 1 2 3 4 5 6 7 8 9 10 11 13 14 15 16 17 18 20 21 22 23 24 25 0
3 1 0
3 2 0
-1 -2 -3 0
-5 -3 0
-5 4 0
3 -4 5 0
-8 6 0
-8 7 0
-6 -7 8 0
8 9 -10 0
-8 -9 -10 0
8 -9 10 0
-8 9 10 0
11 10 0
11 -6 0
-10 6 -11 0
-12 5 0
-12 -11 0
-5 11 12 0
-14 -13 0
-14 -5 0
13 5 14 0
8 -11 -15 0
-8 11 -15 0
8 11 15 0
-8 -11 15 0
-5 15 -16 0
5 -15 -16 0
-5 -15 16 0
5 15 16 0
-18 -17 0
-18 -5 0
17 5 18 0
-16 18 -19 0
16 -18 -19 0
-16 -18 19 0
16 18 19 0
20 14 0
20 -19 0
-14 19 -20 0
-12 20 -21 0
12 -20 -21 0
-12 -20 21 0
12 20 21 0
-22 -1 0
-22 -7 0
1 7 22 0
-23 -1 0
-23 7 0
1 -7 23 0
-24 -22 0
-24 -23 0
22 23 24 0
25 21 0
25 -24 0
-21 24 -25 0
-22 -3 17 -10 -14 2 -15 0
12 -24 5 -20 -18 0
23 -12 1 7 -18 17 5 -16 0
20 22 6 11 0
6 18 22 -1 16 2 0
3 -17 15 6 0
25 0
